c read Graph
c width = 87
c time = 147 ms
c width = 13
c time = 262 ms
c width = 12
c time = 337 ms
c width = 11
c time = 803 ms
c width = 10
c time = 3285 ms
c width = 10
c time = 4885 ms
s td 89 11 100
b 1 1 2 11
b 2 2 3 11 12
b 3 8 9 19 20
b 4 3 11 12 21
b 5 8 19 20 30
b 6 71 81 82 92
b 7 80 89 90 99
b 8 71 82 92 93
b 9 80 89 98 99
b 10 3 4 5 14
b 11 3 5 13 14 22 31
b 12 5 13 14 22 24 31 33
b 13 5 14 22 24 31 33 42
b 14 5 14 24 31 33 42 51
b 15 5 14 16 24 25 33 42 51
b 16 5 14 15 16 25
b 17 5 16 24 25 33 35 42 44 51
b 18 5 16 25 33 35 42 44 51 53
b 19 33 42 43 44 53
b 20 24 33 34 35 44
b 21 31 41 42 51
b 22 22 31 32 33 42
b 23 13 22 23 24 33
b 24 3 13 21 22 31
b 25 3 12 13 21 22
b 26 5 6 16 25 35 42 44 51 53
b 27 6 7 16 25 35 42 44 51 53
b 28 7 8 16 18 25 27 35 42 44 51 53
b 29 8 16 18 25 26 27 35 42 44 51 53
b 30 8 18 19 26 27 30 35 42 44 51 53
b 31 18 19 26 27 29 30 35 42 44 51 53
b 32 18 26 27 29 30 35 38 42 44 51 53
b 33 26 27 29 30 35 36 38 42 44 51 53
b 34 27 29 30 35 36 37 38 42 44 51 53
b 35 29 30 35 36 37 38 39 42 44 51 53
b 36 30 35 36 37 38 39 40 42 44 51 53
b 37 35 36 37 38 39 40 42 44 45 51 53
b 38 36 37 38 39 40 42 44 45 46 51 53
b 39 37 38 39 40 42 44 45 46 47 51 53
b 40 38 39 40 42 44 45 46 47 49 51 53
b 41 38 40 42 44 45 46 47 49 51 53 58
b 42 40 42 44 45 46 47 49 50 51 53 58
b 43 42 44 45 46 47 49 50 51 53 55 58
b 44 42 44 46 47 49 50 51 53 55 56 58
b 45 42 44 47 49 50 51 53 55 56 57 58
b 46 42 44 49 50 51 53 55 56 57 58 59
b 47 42 44 50 51 53 55 56 57 58 59 60
b 48 42 44 51 53 55 56 57 58 59 60 66
b 49 42 44 51 53 55 57 58 59 60 66 67
b 50 42 44 51 53 55 58 59 60 66 67 68
b 51 42 44 51 53 55 59 60 66 67 68 69
b 52 42 44 51 53 55 60 66 67 68 69 80
b 53 42 44 51 53 55 66 67 68 69 77 80
b 54 42 44 51 53 55 66 68 69 77 78 80
b 55 42 44 51 53 55 66 69 77 78 79 80
b 56 42 44 51 53 55 66 77 78 79 80 88
b 57 42 44 51 53 55 66 77 79 80 88 98
b 58 42 44 51 53 55 66 77 87 88 96 98
b 59 87 88 96 97 98
b 60 38 47 48 49 58
b 61 7 16 17 18 27
b 62 18 27 28 29 38
b 63 79 80 88 89 98
b 64 60 69 70 80
b 65 42 44 51 53 55 66 76 77 87 96
b 66 42 44 51 53 55 66 76 85 87 96
b 67 76 85 87 96
b 68 76 85 86 87 96
b 69 42 44 51 53 55 65 66 76 85 96
b 70 42 44 51 53 55 65 74 76 85 96
b 71 42 44 51 53 55 63 65 74 85 96
b 72 42 51 53 62 63 74 85 96
b 73 51 62 63 74 85 94 96
b 74 51 62 63 74 83 85 94
b 75 74 83 84 85 94
b 76 51 62 63 72 74 83 94
b 77 51 62 71 72 83 94
b 78 71 72 83 93 94
b 79 71 72 82 83 93
b 80 51 61 62 71
b 81 63 72 73 74 83
b 82 85 94 95 96
b 83 42 51 52 53 62
b 84 44 53 54 55 63 65 74
b 85 54 63 64 65 74
b 86 65 74 75 76 85
b 87 90 99 100
b 88 81 91 92
b 89 9 10 20
1 2
2 4
3 89
3 5
4 25
5 30
6 88
6 8
7 87
7 9
8 79
9 63
10 11
11 24
11 12
12 23
12 13
13 22
13 14
14 21
14 15
15 17
15 16
17 20
17 18
18 26
18 19
24 25
26 27
27 28
28 61
28 29
29 30
30 31
31 32
32 62
32 33
33 34
34 35
35 36
36 37
37 38
38 39
39 40
40 41
41 60
41 42
42 43
43 44
44 45
45 46
46 47
47 48
48 49
49 50
50 51
51 52
52 64
52 53
53 54
54 55
55 56
56 57
57 63
57 58
58 65
58 59
65 66
66 69
66 68
66 67
69 70
70 86
70 71
71 72
71 84
72 83
72 73
73 82
73 74
74 75
74 76
76 81
76 77
77 80
77 78
78 79
84 85
